Geographic Exponential Decay
40 228 22 123 245 89 203 288 258 74 213 208 75 157 125 297 216 105 66 40 282 188 114 224 23 18 249 167 79 128 284 210 256 310 77 9 47 39 262 175 268
p edge 320 532
e 0 147 4.0
e 1 51 2.0
e 1 163 10.0
e 2 315 1.0
e 3 68 1.0
e 4 177 39.0
e 4 236 32.0
e 4 245 76.0
e 4 37 14.0
e 4 28 5.0
e 5 312 1.0
e 6 31 5.0
e 6 75 9.0
e 7 141 1.0
e 8 13 15.0
e 8 65 9.0
e 8 58 18.0
e 9 269 98.0
e 9 309 7.0
e 9 169 55.0
e 9 292 86.0
e 9 44 48.0
e 9 224 8.0
e 9 100 96.0
e 9 38 89.0
e 9 10 58.0
e 11 310 86.0
e 12 288 23.0
e 14 157 50.0
e 15 110 1.0
e 16 160 3.0
e 17 34 1.0
e 18 120 43.0
e 18 169 58.0
e 18 266 95.0
e 18 101 9.0
e 18 74 29.0
e 18 102 31.0
e 18 55 49.0
e 18 181 16.0
e 18 182 71.0
e 19 18 78.0
e 20 286 2.0
e 21 83 1.0
e 22 34 29.0
e 22 91 11.0
e 22 108 70.0
e 22 173 22.0
e 22 141 10.0
e 22 230 97.0
e 22 58 6.0
e 22 288 31.0
e 22 147 90.0
e 23 272 47.0
e 23 157 18.0
e 23 101 12.0
e 23 169 30.0
e 23 229 50.0
e 23 50 40.0
e 23 289 43.0
e 23 253 91.0
e 23 306 83.0
e 24 211 9.0
e 24 163 10.0
e 25 299 1.0
e 26 8 16.0
e 26 160 7.0
e 27 265 11.0
e 27 102 4.0
e 29 91 1.0
e 30 195 1.0
e 31 79 96.0
e 32 76 2.0
e 33 235 1.0
e 35 173 3.0
e 36 253 11.0
e 36 62 24.0
e 36 252 18.0
e 38 64 10.0
e 39 294 38.0
e 39 4 54.0
e 39 264 96.0
e 39 124 52.0
e 39 239 42.0
e 39 158 19.0
e 39 223 27.0
e 39 103 21.0
e 39 188 17.0
e 40 269 93.0
e 40 87 47.0
e 40 205 38.0
e 40 98 51.0
e 40 297 29.0
e 40 142 32.0
e 40 146 21.0
e 40 139 89.0
e 40 233 67.0
e 41 103 11.0
e 41 28 2.0
e 42 117 2.0
e 43 245 78.0
e 43 195 5.0
e 45 14 1.0
e 46 135 3.0
e 46 164 9.0
e 47 221 19.0
e 47 60 45.0
e 47 196 4.0
e 47 254 29.0
e 47 22 77.0
e 47 61 36.0
e 47 41 45.0
e 47 42 9.0
e 47 150 69.0
e 48 140 1.0
e 49 151 41.0
e 49 92 26.0
e 49 133 23.0
e 49 72 49.0
e 49 230 45.0
e 51 138 7.0
e 51 97 9.0
e 52 138 1.0
e 53 200 2.0
e 54 129 8.0
e 54 301 7.0
e 54 268 63.0
e 55 203 66.0
e 55 156 13.0
e 56 104 12.0
e 56 94 6.0
e 57 54 12.0
e 59 190 1.0
e 63 64 2.0
e 66 113 58.0
e 66 295 2.0
e 66 104 14.0
e 66 229 48.0
e 66 114 21.0
e 66 121 62.0
e 66 216 93.0
e 66 217 51.0
e 66 211 40.0
e 67 114 45.0
e 67 268 54.0
e 69 305 2.0
e 70 144 1.0
e 71 78 4.0
e 71 225 5.0
e 73 125 20.0
e 73 63 8.0
e 74 110 61.0
e 74 216 26.0
e 74 291 31.0
e 74 7 28.0
e 74 124 16.0
e 74 301 61.0
e 74 13 53.0
e 74 310 67.0
e 75 46 75.0
e 75 105 67.0
e 75 95 31.0
e 75 19 85.0
e 75 131 73.0
e 75 106 13.0
e 75 36 40.0
e 75 226 6.0
e 77 140 26.0
e 77 27 87.0
e 77 15 99.0
e 77 277 72.0
e 77 78 29.0
e 77 187 70.0
e 77 177 46.0
e 77 20 80.0
e 77 68 60.0
e 79 98 45.0
e 79 25 4.0
e 79 313 39.0
e 79 170 6.0
e 79 171 45.0
e 79 310 56.0
e 79 248 79.0
e 79 83 8.0
e 80 183 5.0
e 81 203 85.0
e 82 90 1.0
e 83 5 15.0
e 84 52 1.0
e 85 196 3.0
e 86 255 1.0
e 87 83 5.0
e 87 85 20.0
e 88 182 5.0
e 89 200 63.0
e 89 97 48.0
e 89 204 29.0
e 89 254 42.0
e 89 32 79.0
e 89 30 20.0
e 89 24 1.0
e 89 99 78.0
e 89 105 95.0
e 92 31 3.0
e 93 255 6.0
e 96 43 3.0
e 99 171 7.0
e 105 303 48.0
e 105 205 1.0
e 105 44 26.0
e 105 264 46.0
e 105 142 73.0
e 105 131 75.0
e 105 176 64.0
e 106 242 23.0
e 106 127 14.0
e 107 84 3.0
e 109 200 1.0
e 111 224 38.0
e 111 161 1.0
e 112 165 1.0
e 114 132 18.0
e 114 174 5.0
e 114 212 89.0
e 114 45 23.0
e 114 59 73.0
e 114 53 65.0
e 114 105 44.0
e 115 203 63.0
e 116 206 2.0
e 118 116 4.0
e 119 144 1.0
e 122 6 7.0
e 123 180 87.0
e 123 76 23.0
e 123 94 78.0
e 123 201 25.0
e 123 96 51.0
e 123 137 82.0
e 123 139 38.0
e 123 229 22.0
e 123 231 56.0
e 125 55 61.0
e 125 157 70.0
e 125 17 54.0
e 125 178 92.0
e 125 277 21.0
e 125 158 96.0
e 125 248 36.0
e 125 265 92.0
e 126 163 3.0
e 127 135 2.0
e 128 56 36.0
e 128 266 39.0
e 128 302 24.0
e 128 60 27.0
e 128 38 19.0
e 128 154 28.0
e 128 197 56.0
e 128 238 44.0
e 128 303 24.0
e 130 9 19.0
e 133 106 13.0
e 133 146 21.0
e 134 216 16.0
e 136 86 2.0
e 137 302 11.0
e 142 90 23.0
e 143 145 1.0
e 148 191 5.0
e 149 137 9.0
e 152 107 18.0
e 152 272 23.0
e 152 145 36.0
e 152 231 16.0
e 152 164 29.0
e 153 48 2.0
e 154 57 5.0
e 154 88 22.0
e 155 87 19.0
e 156 108 1.0
e 156 136 4.0
e 157 149 82.0
e 157 142 5.0
e 157 65 8.0
e 157 109 31.0
e 157 47 18.0
e 157 227 62.0
e 159 112 10.0
e 159 183 4.0
e 162 61 1.0
e 166 10 12.0
e 166 248 1.0
e 166 191 7.0
e 167 143 69.0
e 167 256 58.0
e 167 114 16.0
e 167 148 77.0
e 167 244 15.0
e 167 89 51.0
e 167 62 11.0
e 167 190 22.0
e 167 92 73.0
e 168 119 1.0
e 170 258 76.0
e 172 150 1.0
e 175 161 27.0
e 175 11 38.0
e 175 202 57.0
e 175 93 34.0
e 175 12 3.0
e 175 99 93.0
e 175 66 50.0
e 175 111 34.0
e 175 184 96.0
e 179 67 1.0
e 179 197 1.0
e 180 174 7.0
e 180 197 16.0
e 185 236 6.0
e 186 245 74.0
e 188 247 57.0
e 188 189 65.0
e 188 304 50.0
e 188 69 30.0
e 188 305 10.0
e 188 165 88.0
e 188 80 79.0
e 188 256 98.0
e 189 151 15.0
e 189 113 19.0
e 192 186 2.0
e 193 16 3.0
e 194 33 6.0
e 194 21 1.0
e 194 49 5.0
e 198 193 1.0
e 199 40 15.0
e 199 201 1.0
e 203 225 14.0
e 203 50 32.0
e 203 273 60.0
e 203 123 8.0
e 203 233 74.0
e 203 276 69.0
e 207 162 1.0
e 207 250 24.0
e 207 184 7.0
e 208 267 19.0
e 208 51 38.0
e 208 227 61.0
e 208 132 78.0
e 208 23 71.0
e 208 100 94.0
e 208 155 65.0
e 208 70 21.0
e 208 79 39.0
e 209 314 2.0
e 210 316 17.0
e 210 26 3.0
e 210 290 30.0
e 210 95 75.0
e 210 281 84.0
e 210 187 41.0
e 210 226 87.0
e 210 206 51.0
e 210 35 45.0
e 213 115 20.0
e 213 129 69.0
e 213 172 81.0
e 213 251 44.0
e 213 222 76.0
e 213 278 99.0
e 213 276 2.0
e 213 101 80.0
e 213 316 91.0
e 214 117 10.0
e 214 134 5.0
e 215 291 1.0
e 216 152 97.0
e 216 286 33.0
e 216 153 27.0
e 216 118 61.0
e 216 71 51.0
e 216 72 34.0
e 218 273 1.0
e 219 274 1.0
e 220 290 12.0
e 220 154 23.0
e 224 306 45.0
e 224 120 26.0
e 224 222 14.0
e 224 73 48.0
e 224 188 98.0
e 224 159 40.0
e 224 235 17.0
e 228 292 95.0
e 228 29 67.0
e 228 198 80.0
e 228 156 33.0
e 228 262 91.0
e 228 207 45.0
e 228 312 70.0
e 228 314 59.0
e 228 74 24.0
e 231 311 20.0
e 232 75 87.0
e 234 244 5.0
e 236 1 45.0
e 236 204 31.0
e 236 199 35.0
e 237 299 5.0
e 237 166 16.0
e 238 270 45.0
e 238 77 99.0
e 238 37 2.0
e 238 213 24.0
e 240 167 22.0
e 241 157 15.0
e 243 178 2.0
e 245 202 74.0
e 245 39 42.0
e 245 121 53.0
e 245 271 67.0
e 245 122 56.0
e 245 81 82.0
e 246 125 22.0
e 249 176 32.0
e 249 82 75.0
e 249 126 93.0
e 249 127 46.0
e 249 128 63.0
e 249 130 70.0
e 249 133 27.0
e 249 208 20.0
e 249 185 37.0
e 256 168 62.0
e 256 169 17.0
e 256 170 23.0
e 256 189 72.0
e 256 203 47.0
e 256 175 35.0
e 256 179 27.0
e 257 180 5.0
e 258 181 55.0
e 258 192 1.0
e 258 3 37.0
e 258 194 63.0
e 258 275 76.0
e 258 209 89.0
e 258 210 35.0
e 258 231 76.0
e 259 212 2.0
e 260 214 9.0
e 261 215 9.0
e 261 216 7.0
e 262 217 28.0
e 262 218 73.0
e 262 219 5.0
e 262 220 25.0
e 262 221 45.0
e 262 263 51.0
e 262 223 30.0
e 262 224 74.0
e 263 228 36.0
e 263 232 7.0
e 267 234 2.0
e 267 236 21.0
e 267 237 27.0
e 267 256 87.0
e 268 238 46.0
e 268 304 75.0
e 268 239 24.0
e 268 274 77.0
e 268 242 83.0
e 268 240 85.0
e 268 246 66.0
e 270 241 10.0
e 279 243 1.0
e 280 294 8.0
e 282 245 62.0
e 282 247 75.0
e 282 249 8.0
e 282 250 64.0
e 282 251 69.0
e 282 252 84.0
e 282 257 4.0
e 282 307 10.0
e 282 258 26.0
e 283 259 2.0
e 283 260 8.0
e 283 261 3.0
e 284 262 6.0
e 284 263 10.0
e 284 267 53.0
e 284 268 77.0
e 284 269 51.0
e 284 270 10.0
e 284 278 34.0
e 284 315 12.0
e 284 271 66.0
e 285 275 5.0
e 287 307 9.0
e 287 279 10.0
e 288 280 60.0
e 288 281 61.0
e 288 282 88.0
e 288 283 59.0
e 288 284 82.0
e 288 285 18.0
e 288 287 4.0
e 293 288 52.0
e 295 289 14.0
e 295 290 2.0
e 296 292 2.0
e 297 293 55.0
e 297 294 2.0
e 297 295 97.0
e 297 296 75.0
e 297 298 18.0
e 297 299 59.0
e 297 300 37.0
e 297 308 3.0
e 310 297 54.0
e 310 308 18.0
e 310 298 23.0
e 310 300 80.0
e 310 309 81.0
e 310 311 3.0
e 317 310 42.0
e 318 313 5.0
e 319 317 1.0
Geographic Exponential Decay
20 24 152 7 222 204 248 116 57 169 171 233 250 75 31 243 242 162 66 3 306
p edge 320 666
e 0 228 12.0
e 0 254 6.0
e 1 192 3.0
e 2 32 1.0
e 3 72 5.0
e 3 90 43.0
e 3 302 23.0
e 3 123 28.0
e 3 317 79.0
e 3 33 11.0
e 3 122 5.0
e 3 178 57.0
e 3 96 50.0
e 3 275 72.0
e 3 4 94.0
e 3 30 2.0
e 3 299 37.0
e 3 312 55.0
e 3 301 39.0
e 3 251 6.0
e 3 132 47.0
e 5 147 1.0
e 5 132 4.0
e 6 52 1.0
e 6 316 3.0
e 7 296 44.0
e 7 62 84.0
e 7 166 5.0
e 7 253 37.0
e 7 284 20.0
e 7 149 90.0
e 7 285 17.0
e 7 8 86.0
e 7 301 1.0
e 7 115 51.0
e 7 167 81.0
e 7 132 2.0
e 7 157 50.0
e 7 17 19.0
e 7 101 7.0
e 7 9 1.0
e 7 11 7.0
e 9 110 3.0
e 10 59 2.0
e 12 10 1.0
e 13 250 100.0
e 14 195 3.0
e 14 140 5.0
e 15 46 5.0
e 15 260 3.0
e 16 28 11.0
e 18 79 3.0
e 18 203 1.0
e 19 289 1.0
e 19 251 1.0
e 20 234 5.0
e 20 118 3.0
e 21 52 1.0
e 22 170 2.0
e 23 231 2.0
e 23 314 2.0
e 24 290 37.0
e 24 212 82.0
e 24 67 86.0
e 24 37 19.0
e 24 207 22.0
e 24 113 60.0
e 24 85 72.0
e 24 120 77.0
e 24 298 27.0
e 24 250 22.0
e 24 174 55.0
e 24 303 30.0
e 24 265 54.0
e 24 257 12.0
e 24 38 98.0
e 24 69 67.0
e 24 291 94.0
e 25 291 2.0
e 26 100 1.0
e 27 98 2.0
e 27 37 3.0
e 28 249 11.0
e 28 68 6.0
e 29 86 2.0
e 30 287 3.0
e 31 258 41.0
e 31 51 27.0
e 31 180 21.0
e 31 53 78.0
e 31 62 57.0
e 31 49 79.0
e 31 244 32.0
e 31 126 77.0
e 31 190 13.0
e 31 223 44.0
e 31 50 33.0
e 31 204 85.0
e 31 230 63.0
e 31 213 40.0
e 31 87 19.0
e 31 272 45.0
e 31 61 60.0
e 33 162 59.0
e 33 279 1.0
e 34 64 2.0
e 35 178 5.0
e 36 210 5.0
e 36 189 6.0
e 38 235 2.0
e 38 52 2.0
e 39 77 6.0
e 40 78 12.0
e 40 6 4.0
e 40 67 7.0
e 41 211 5.0
e 41 265 2.0
e 42 49 14.0
e 43 168 5.0
e 43 131 1.0
e 43 146 5.0
e 44 297 1.0
e 45 78 4.0
e 45 88 1.0
e 46 241 12.0
e 46 228 6.0
e 47 284 1.0
e 48 232 11.0
e 49 283 22.0
e 49 194 23.0
e 49 41 15.0
e 50 248 8.0
e 53 224 3.0
e 54 62 2.0
e 55 303 21.0
e 55 170 7.0
e 55 7 41.0
e 55 272 20.0
e 55 43 6.0
e 56 211 1.0
e 56 89 4.0
e 57 107 8.0
e 57 84 1.0
e 57 92 37.0
e 57 80 54.0
e 57 279 15.0
e 57 10 21.0
e 57 277 66.0
e 57 314 100.0
e 57 262 38.0
e 57 255 38.0
e 57 205 2.0
e 57 106 75.0
e 57 63 96.0
e 57 287 67.0
e 57 269 8.0
e 57 192 5.0
e 57 263 1.0
e 58 10 9.0
e 58 313 6.0
e 58 85 10.0
e 60 198 2.0
e 60 58 11.0
e 60 307 7.0
e 61 311 3.0
e 65 226 3.0
e 66 143 88.0
e 66 261 56.0
e 66 37 94.0
e 66 266 65.0
e 66 35 57.0
e 66 62 8.0
e 66 257 42.0
e 66 310 15.0
e 66 276 64.0
e 66 189 30.0
e 66 24 54.0
e 66 285 15.0
e 66 311 18.0
e 66 252 62.0
e 66 286 1.0
e 66 64 10.0
e 66 81 71.0
e 67 146 7.0
e 68 298 1.0
e 70 56 2.0
e 70 286 3.0
e 71 167 1.0
e 73 15 1.0
e 73 272 1.0
e 74 224 3.0
e 74 158 5.0
e 75 252 76.0
e 75 70 32.0
e 75 169 2.0
e 75 255 69.0
e 75 286 47.0
e 75 96 11.0
e 75 288 7.0
e 75 111 14.0
e 75 38 65.0
e 75 120 58.0
e 75 28 71.0
e 75 295 45.0
e 75 264 13.0
e 75 256 8.0
e 75 137 93.0
e 75 310 29.0
e 75 270 50.0
e 76 268 2.0
e 77 252 1.0
e 77 270 2.0
e 82 103 2.0
e 83 178 4.0
e 84 287 2.0
e 88 201 10.0
e 88 22 1.0
e 91 6 5.0
e 93 146 4.0
e 94 36 2.0
e 94 111 2.0
e 95 2 9.0
e 95 76 3.0
e 95 206 21.0
e 95 184 9.0
e 95 125 21.0
e 97 209 2.0
e 97 191 1.0
e 99 240 2.0
e 99 70 4.0
e 99 132 8.0
e 102 191 1.0
e 104 206 11.0
e 104 150 5.0
e 104 111 41.0
e 104 200 44.0
e 104 52 43.0
e 104 151 19.0
e 104 174 28.0
e 104 140 39.0
e 104 112 50.0
e 105 41 3.0
e 105 143 11.0
e 106 12 4.0
e 106 289 1.0
e 108 26 10.0
e 108 80 8.0
e 108 284 3.0
e 109 184 2.0
e 112 280 1.0
e 114 145 2.0
e 115 166 2.0
e 115 159 1.0
e 115 98 24.0
e 115 140 14.0
e 116 200 8.0
e 116 53 85.0
e 116 318 76.0
e 116 224 37.0
e 116 172 96.0
e 116 276 91.0
e 116 153 27.0
e 116 146 42.0
e 116 271 43.0
e 116 131 14.0
e 116 175 83.0
e 116 38 1.0
e 116 126 77.0
e 116 284 24.0
e 116 39 61.0
e 116 296 59.0
e 116 253 77.0
e 117 181 6.0
e 117 188 1.0
e 118 204 97.0
e 118 163 7.0
e 119 163 3.0
e 119 307 4.0
e 120 34 4.0
e 121 279 6.0
e 121 41 2.0
e 122 28 12.0
e 122 160 23.0
e 124 196 3.0
e 124 48 22.0
e 124 223 2.0
e 124 2 21.0
e 124 293 19.0
e 125 38 6.0
e 127 101 2.0
e 128 306 21.0
e 129 255 3.0
e 129 123 11.0
e 129 28 9.0
e 130 78 1.0
e 133 182 11.0
e 133 24 92.0
e 133 300 6.0
e 134 250 6.0
e 134 206 4.0
e 134 220 5.0
e 135 99 5.0
e 135 201 8.0
e 135 126 11.0
e 136 101 2.0
e 136 16 1.0
e 138 246 1.0
e 139 29 2.0
e 141 153 3.0
e 142 65 2.0
e 142 261 2.0
e 142 146 12.0
e 142 250 36.0
e 142 82 5.0
e 143 285 5.0
e 143 181 9.0
e 143 232 2.0
e 144 73 5.0
e 145 164 5.0
e 148 287 2.0
e 148 292 4.0
e 149 29 5.0
e 150 232 2.0
e 151 303 12.0
e 151 81 32.0
e 151 83 2.0
e 151 280 18.0
e 151 44 7.0
e 151 119 46.0
e 151 242 29.0
e 151 261 37.0
e 152 170 92.0
e 152 102 61.0
e 152 219 79.0
e 152 313 68.0
e 152 138 2.0
e 152 231 56.0
e 152 277 21.0
e 152 234 18.0
e 152 195 18.0
e 152 79 49.0
e 152 314 41.0
e 152 84 77.0
e 152 295 84.0
e 152 0 75.0
e 152 151 12.0
e 152 48 68.0
e 152 127 95.0
e 153 163 8.0
e 154 207 2.0
e 155 84 7.0
e 155 32 1.0
e 155 12 6.0
e 156 124 1.0
e 156 161 4.0
e 156 212 9.0
e 160 244 22.0
e 160 3 9.0
e 160 18 12.0
e 160 88 2.0
e 162 232 52.0
e 162 158 21.0
e 162 315 44.0
e 162 147 57.0
e 162 0 37.0
e 162 69 6.0
e 162 221 5.0
e 162 305 27.0
e 162 168 10.0
e 162 201 59.0
e 162 31 60.0
e 162 169 98.0
e 162 261 2.0
e 162 9 56.0
e 162 192 15.0
e 162 60 70.0
e 165 237 10.0
e 165 240 9.0
e 165 252 7.0
e 166 96 1.0
e 169 83 2.0
e 169 31 57.0
e 169 302 58.0
e 169 313 26.0
e 169 226 19.0
e 169 63 85.0
e 169 180 13.0
e 169 123 16.0
e 169 199 27.0
e 169 247 9.0
e 169 64 38.0
e 169 258 64.0
e 169 242 83.0
e 169 51 76.0
e 169 163 34.0
e 171 96 86.0
e 171 170 29.0
e 171 270 17.0
e 171 220 5.0
e 171 252 100.0
e 171 64 85.0
e 171 35 27.0
e 171 118 81.0
e 171 3 69.0
e 171 221 82.0
e 171 160 17.0
e 171 127 45.0
e 171 265 95.0
e 171 133 57.0
e 171 89 11.0
e 171 88 35.0
e 171 277 49.0
e 172 162 92.0
e 173 160 21.0
e 174 298 23.0
e 174 197 12.0
e 174 30 1.0
e 175 196 1.0
e 176 269 1.0
e 177 88 11.0
e 177 311 2.0
e 179 29 3.0
e 179 165 9.0
e 179 157 1.0
e 179 195 2.0
e 179 232 23.0
e 182 74 23.0
e 182 148 10.0
e 182 223 2.0
e 182 130 18.0
e 183 168 6.0
e 183 72 2.0
e 185 167 3.0
e 185 30 4.0
e 186 47 1.0
e 187 202 2.0
e 188 297 6.0
e 189 218 1.0
e 190 68 32.0
e 190 66 7.0
e 190 267 19.0
e 190 72 44.0
e 190 83 39.0
e 190 130 40.0
e 190 217 8.0
e 190 34 21.0
e 193 230 5.0
e 193 301 10.0
e 193 164 11.0
e 193 226 17.0
e 193 292 15.0
e 199 260 10.0
e 199 58 10.0
e 203 294 2.0
e 204 37 39.0
e 204 262 60.0
e 204 274 49.0
e 204 36 75.0
e 204 138 55.0
e 204 293 77.0
e 204 143 64.0
e 204 178 48.0
e 204 129 30.0
e 204 63 23.0
e 204 22 62.0
e 204 144 9.0
e 204 270 50.0
e 204 191 44.0
e 204 110 55.0
e 208 229 12.0
e 209 78 5.0
e 210 122 5.0
e 213 22 9.0
e 213 318 1.0
e 214 108 10.0
e 215 175 2.0
e 215 80 2.0
e 216 108 7.0
e 218 89 10.0
e 218 197 12.0
e 219 253 47.0
e 219 202 2.0
e 220 173 1.0
e 222 224 71.0
e 222 210 2.0
e 222 39 100.0
e 222 234 99.0
e 222 180 35.0
e 222 289 84.0
e 222 57 56.0
e 222 86 85.0
e 222 139 59.0
e 222 89 10.0
e 222 8 15.0
e 222 276 47.0
e 222 97 91.0
e 222 21 41.0
e 222 24 34.0
e 222 233 6.0
e 222 259 30.0
e 225 52 6.0
e 227 271 1.0
e 227 125 3.0
e 228 140 2.0
e 229 94 19.0
e 229 243 22.0
e 229 16 9.0
e 229 278 19.0
e 233 120 23.0
e 233 160 45.0
e 233 63 90.0
e 233 217 32.0
e 233 309 14.0
e 233 150 83.0
e 233 118 56.0
e 233 206 34.0
e 233 135 34.0
e 233 145 72.0
e 233 265 37.0
e 233 198 8.0
e 233 90 1.0
e 233 281 70.0
e 233 175 23.0
e 233 53 54.0
e 236 30 2.0
e 237 180 2.0
e 238 18 4.0
e 238 76 3.0
e 238 268 5.0
e 239 125 12.0
e 239 282 9.0
e 239 276 1.0
e 241 264 19.0
e 241 152 88.0
e 241 235 17.0
e 241 94 22.0
e 242 71 45.0
e 242 23 88.0
e 242 152 98.0
e 242 166 61.0
e 242 290 100.0
e 242 147 74.0
e 242 61 37.0
e 242 75 52.0
e 242 241 75.0
e 242 84 48.0
e 242 279 83.0
e 242 191 64.0
e 242 205 12.0
e 242 48 63.0
e 242 216 21.0
e 243 307 17.0
e 243 133 52.0
e 243 153 76.0
e 243 244 94.0
e 243 106 94.0
e 243 202 67.0
e 243 256 27.0
e 243 97 91.0
e 243 271 86.0
e 243 109 5.0
e 243 135 71.0
e 243 26 91.0
e 243 74 9.0
e 243 192 14.0
e 243 277 25.0
e 243 34 62.0
e 245 79 1.0
e 247 49 12.0
e 247 19 3.0
e 248 90 22.0
e 248 271 76.0
e 248 172 3.0
e 248 147 13.0
e 248 201 39.0
e 248 288 25.0
e 248 234 65.0
e 248 39 40.0
e 248 131 60.0
e 248 135 82.0
e 248 223 18.0
e 248 107 35.0
e 248 141 97.0
e 248 159 84.0
e 248 218 34.0
e 248 181 46.0
e 250 278 100.0
e 250 110 93.0
e 250 220 1.0
e 250 279 98.0
e 250 225 67.0
e 250 261 83.0
e 250 288 2.0
e 250 229 34.0
e 250 316 36.0
e 250 209 41.0
e 250 300 37.0
e 250 166 77.0
e 250 230 73.0
e 253 310 28.0
e 253 90 18.0
e 253 245 38.0
e 253 53 33.0
e 253 12 49.0
e 253 212 29.0
e 254 7 66.0
e 256 138 13.0
e 256 209 18.0
e 256 314 35.0
e 256 291 29.0
e 256 65 3.0
e 256 123 40.0
e 256 142 33.0
e 259 197 8.0
e 259 186 7.0
e 259 247 10.0
e 259 79 12.0
e 262 32 3.0
e 263 80 8.0
e 263 1 25.0
e 263 167 1.0
e 263 91 13.0
e 266 57 76.0
e 267 213 8.0
e 273 16 3.0
e 278 169 29.0
e 278 282 16.0
e 278 139 14.0
e 281 238 9.0
e 281 31 94.0
e 283 289 5.0
e 293 311 18.0
e 293 225 6.0
e 293 17 22.0
e 294 225 5.0
e 303 245 3.0
e 303 233 87.0
e 304 179 23.0
e 305 121 1.0
e 306 228 97.0
e 306 229 14.0
e 306 98 10.0
e 306 239 17.0
e 306 255 44.0
e 306 15 41.0
e 306 312 74.0
e 306 199 92.0
e 306 65 22.0
e 306 144 36.0
e 306 314 36.0
e 306 243 90.0
e 306 245 21.0
e 306 32 52.0
e 306 150 16.0
e 306 226 28.0
e 308 42 1.0
e 308 81 1.0
e 312 77 7.0
e 312 127 15.0
e 312 177 3.0
e 315 94 2.0
e 319 313 9.0
e 319 81 22.0
e 319 51 6.0
e 319 177 8.0
e 319 77 19.0
